100
128
52
25
44
3
55
25
54
27
24
26
57
27
46
64
45
35
12
28
8
2
14
18
23
16
9
16
26
43
1
8
32
13
14
9
18
32
15
34
22
37
9
21
11
12
13
14
26
21
24
10
20
16
1
16
13
38
17
49
44
15
31
1
9
32
16
21
25
14
1
14
22
39
53
44
8
16
61
44
48
13
17
3
23
28
8
52
1
34
43
42
58
27
52
5
20
36
20
30
32
63